datasets/2-dimensional/CL_03_25_07.vbp
2
1000 1000 
25
275 376 30
287 448 72
602 391 4
555 537 88
279 221 54
706 775 64
571 733 90
606 629 26
545 595 94
321 365 28
668 472 72
718 449 49
406 631 54
465 349 19
627 339 28
226 332 61
597 262 84
271 263 23
382 668 67
464 210 53
249 223 54
272 439 16
666 793 9
563 217 54
497 245 77
