datasets/2-dimensional-benchmark/CL_03_25_07.txt
1000 1000 
0 30 275 376 
1 72 287 448 
2 4 602 391 
3 88 555 537 
4 54 279 221 
5 64 706 775 
6 90 571 733 
7 26 606 629 
8 94 545 595 
9 28 321 365 
10 72 668 472 
11 49 718 449 
12 54 406 631 
13 19 465 349 
14 28 627 339 
15 61 226 332 
16 84 597 262 
17 23 271 263 
18 67 382 668 
19 53 464 210 
20 54 249 223 
21 16 272 439 
22 9 666 793 
23 54 563 217 
24 77 497 245 
